
Log started (V22.2.0.0) Tue Jun  9 08:33:18 2026

New value for time limit in seconds: 120
New value for default parallel thread count: 4
New value for mixed integer optimality gap tolerance: 0.001
New value for level of mixed integer node display: 2

Problem 'results/InstanceB6_bigm_finsteps123.lp' read.
Read time = 0.00 sec. (0.03 ticks)
Version identifier: 22.2.0.0 | 2026-05-04 | 5dff98e58
CPXPARAM_Threads                                 4
CPXPARAM_TimeLimit                               120
CPXPARAM_MIP_Tolerances_MIPGap                   0.001
Tried aggregator 5 times.
MIP Presolve eliminated 8 rows and 8 columns.
MIP Presolve modified 1656 coefficients.
Aggregator did 80 substitutions.
Reduced MIP has 265 rows, 177 columns, and 716 nonzeros.
Reduced MIP has 106 binaries, 0 generals, 0 SOSs, and 0 indicators.
Presolve time = 0.00 sec. (1.54 ticks)
Found incumbent of value 15.000000 after 0.00 sec. (1.86 ticks)
Probing time = 0.00 sec. (0.55 ticks)
Tried aggregator 1 time.
Detecting symmetries...
MIP Presolve modified 5 coefficients.
Reduced MIP has 265 rows, 177 columns, and 716 nonzeros.
Reduced MIP has 106 binaries, 0 generals, 0 SOSs, and 0 indicators.
Presolve time = 0.00 sec. (0.41 ticks)
Probing time = 0.00 sec. (0.52 ticks)
Clique table members: 225.
MIP emphasis: balance optimality and feasibility.
MIP search method: dynamic search.
Parallel mode: deterministic, using up to 4 threads.
Root relaxation solution time = 0.00 sec. (0.75 ticks)

        Nodes                                         Cuts/
   Node  Left     Objective  IInf  Best Integer    Best Bound    ItCnt     Gap

*     0+    0                           15.0000        2.0000            86.67%
*     0+    0                           12.0000        2.0000            83.33%
      0     0        2.0000     1       12.0000        2.0000       69   83.33%
*     0+    0                            2.0000        2.0000             0.00%
      0     0        cutoff              2.0000        2.0000       69    0.00%
Elapsed time = 0.01 sec. (5.09 ticks, tree = 0.01 MB, solutions = 3)

Root node processing (before b&c):
  Real time             =    0.01 sec. (5.11 ticks)
Parallel b&c, 4 threads:
  Real time             =    0.00 sec. (0.00 ticks)
  Sync time (average)   =    0.00 sec.
  Wait time (average)   =    0.00 sec.
                          ------------
Total (root+branch&cut) =    0.01 sec. (5.11 ticks)

Solution pool: 3 solutions saved.

MIP - Integer optimal solution:  Objective =  2.0000000000e+00
Solution time =    0.01 sec.  Iterations = 69  Nodes = 0
Deterministic time = 5.11 ticks  (634.80 ticks/sec)


Incumbent solution written to file 'results/InstanceB6_bigm_finsteps123.sol'.
